55
23
65
45
12
26
78
2
77
85
14
60
58
18
3
84
12
5
52
81
46
61
43
36
19
29
57
7
49
18
25
44
74
63
44
41
49
66
74
26
20
67
8
56
77
54
65
45
79
30
29
22
34
43
47
77
3
7
67
60
74
19
54
81
50
55
27
55
82
12
33
36
37
77
2
55
69
82
82
38
89
59
77
2
44
33
1
49
74
18
54
40
57
22
49
11
69
40
73
3
